TYPE : Vertex Cover
DIMENSION: 21
EDGE_DATA_SECTION:
0 2
0 8
0 11
0 18
0 20
1 4
1 7
1 11
1 14
1 18
2 4
2 10
2 11
2 20
3 6
3 7
4 15
4 18
4 20
5 7
5 14
5 15
5 16
6 10
6 12
6 14
6 16
6 18
6 20
7 9
7 15
7 16
7 18
7 19
8 10
8 16
8 20
9 12
10 18
11 16
11 17
12 14
12 15
12 16
12 19
13 16
13 18
13 19
13 20
14 15
14 17
14 19
14 20
15 17
16 18
17 18
17 20
18 19
19 20
-1
VERTEX_DEGREE:
5.0 5.0 5.0 2.0 5.0 4.0 7.0 8.0 4.0 2.0 4.0 5.0 6.0 4.0 8.0 6.0 8.0 5.0 10.0 6.0 9.0
VERTEX_COVER:
2 4 6 7 8 11 12 14 15 16 18 19 20
EOF
